n = 10
Q1 = [0 21 29 18 35 45 23 11 49 18; 0 0 22 31 14 20 12 8 46 13; 0 0 0 40 39 31 27 39 41 43; 0 0 0 0 32 46 19 48 21 37; 0 0 0 0 0 35 38 8 8 48; 0 0 0 0 0 0 22 44 24 33; 0 0 0 0 0 0 0 18 32 15; 0 0 0 0 0 0 0 0 16 36; 0 0 0 0 0 0 0 0 0 50; 0 0 0 0 0 0 0 0 0 0]
Q2=[0.0 46.0 2.0 49.0 15.0 3.0 32.0 44.0 0.0 47.0; 0.0 0.0 37.0 19.0 41.0 48.0 39.0 46.0 2.0 50.0; 0.0 0.0 0.0 3.0 6.0 6.0 20.0 2.0 3.0 2.0; 0.0 0.0 0.0 0.0 10.0 1.0 40.0 1.0 31.0 4.0; 0.0 0.0 0.0 0.0 0.0 9.0 4.0 49.0 42.0 2.0; 0.0 0.0 0.0 0.0 0.0 0.0 30.0 6.0 44.0 15.0; 0.0 0.0 0.0 0.0 0.0 0.0 0.0 42.0 10.0 39.0; 0.0 0.0 0.0 0.0 0.0 0.0 0.0 0.0 39.0 13.0; 0.0 0.0 0.0 0.0 0.0 0.0 0.0 0.0 0.0 0.0; 0.0 0.0 0.0 0.0 0.0 0.0 0.0 0.0 0.0 0.0]
